
Gurobi 8.0.1 (linux64, Python) logging started Tue May  7 15:48:04 2019


Gurobi 8.0.1 (linux64, Python) logging started Tue May  7 15:48:32 2019


Gurobi 8.0.1 (linux64, Python) logging started Tue May  7 15:50:17 2019


Gurobi 8.0.1 (linux64, Python) logging started Tue May  7 15:52:43 2019


Gurobi 8.0.1 (linux64, Python) logging started Tue May  7 15:55:10 2019


Gurobi 8.0.1 (linux64, Python) logging started Tue May  7 15:57:57 2019


Gurobi 8.0.1 (linux64, Python) logging started Tue May  7 15:59:39 2019


Gurobi 8.0.1 (linux64, Python) logging started Tue May  7 18:04:52 2019

